(set-info :source |printed by MathSAT|)
(declare-fun |main::in_a0@2| () (_ FloatingPoint 8 24))
(declare-fun |fmin_float::x@2| () (_ FloatingPoint 8 24))
(declare-fun |__fpclassify_float::x@2| () (_ FloatingPoint 8 24))
(declare-fun |__ADDRESS_OF___fpclassify_float::gf_u@| () (_ BitVec 32))
(declare-fun |__fpclassify_float::gf_u$value@3| () (_ FloatingPoint 8 24))
(declare-fun |__fpclassify_float::gf_u$word@3| () (_ BitVec 32))
(declare-fun |__fpclassify_float::in_fa0@3| () (_ BitVec 32))
(declare-fun |__fpclassify_float::iVar1@3| () (_ BitVec 32))
(declare-fun |__fpclassify_float::__retval__@2| () (_ BitVec 32))
(declare-fun |fmin_float::extraout_var@2| () (_ BitVec 32))
(declare-fun |__fpclassify_float::__retval__@3| () (_ BitVec 32))
(declare-fun |fmin_float::x_00@4| () (_ FloatingPoint 8 24))
(declare-fun |fmin_float::__retval__@2| () (_ FloatingPoint 8 24))
(declare-fun |main::extraout_fa0@2| () (_ FloatingPoint 8 24))
(declare-fun |fmin_float::__CPAchecker_TMP_0@4| () (_ BitVec 32))
(declare-fun |__fpclassify_float::x@4| () (_ FloatingPoint 8 24))
(declare-fun |__fpclassify_float::gf_u$value@6| () (_ FloatingPoint 8 24))
(declare-fun |__fpclassify_float::gf_u$word@6| () (_ BitVec 32))
(declare-fun |__fpclassify_float::in_fa0@6| () (_ BitVec 32))
(declare-fun |__fpclassify_float::iVar1@6| () (_ BitVec 32))
(declare-fun |fmin_float::__CPAchecker_TMP_1@4| () (_ BitVec 32))
(declare-fun |fmin_float::x_00@6| () (_ FloatingPoint 8 24))
(declare-fun |main::x_00@6| () (_ FloatingPoint 8 24))
(assert (let ((.def_485 (= |fmin_float::__retval__@2| |main::x_00@6|)))(let ((.def_482 (= |fmin_float::__retval__@2| |fmin_float::x_00@6|)))(let ((.def_478 ((_ to_fp 8 24) RNE |fmin_float::__CPAchecker_TMP_1@4|)))(let ((.def_480 (= .def_478 |fmin_float::x_00@6|)))(let ((.def_476 (= |__fpclassify_float::__retval__@3| |fmin_float::__CPAchecker_TMP_1@4|)))(let ((.def_473 (= |__fpclassify_float::__retval__@3| |__fpclassify_float::iVar1@6|)))(let ((.def_471 (= |__fpclassify_float::iVar1@6| (_ bv4 32))))(let ((.def_466 (bvult (_ bv2139095039 32) |__fpclassify_float::in_fa0@6|)))(let ((.def_468 (not .def_466)))(let ((.def_462 (bvult |__fpclassify_float::in_fa0@6| (_ bv8388608 32))))(let ((.def_464 (not .def_462)))(let ((.def_458 (= |__fpclassify_float::in_fa0@6| (_ bv2147483648 32))))(let ((.def_460 (not .def_458)))(let ((.def_454 (= |__fpclassify_float::in_fa0@6| (_ bv0 32))))(let ((.def_456 (not .def_454)))(let ((.def_452 (= |__fpclassify_float::gf_u$word@6| |__fpclassify_float::in_fa0@6|)))(let ((.def_446 (fp.as_ieee_bv |__fpclassify_float::x@4|)))(let ((.def_448 (= .def_446 |__fpclassify_float::gf_u$word@6|)))(let ((.def_445 (= |__fpclassify_float::x@4| |__fpclassify_float::gf_u$value@6|)))(let ((.def_449 (and .def_445 .def_448)))(let ((.def_442 (= |fmin_float::x_00@4| |__fpclassify_float::x@4|)))(let ((.def_437 (fp.eq (fp #b0 #b00000000 #b00000000000000000000000) |fmin_float::x_00@4|)))(let ((.def_438 (not .def_437)))(let ((.def_433 ((_ to_fp 8 24) RNE |fmin_float::__CPAchecker_TMP_0@4|)))(let ((.def_434 (= |fmin_float::x_00@4| .def_433)))(let ((.def_431 (= |__fpclassify_float::__retval__@2| |fmin_float::__CPAchecker_TMP_0@4|)))(let ((.def_126 (= |__fpclassify_float::iVar1@3| (_ bv2 32))))(let ((.def_36 (= |__fpclassify_float::in_fa0@3| (_ bv0 32))))(let ((.def_34 (= |__fpclassify_float::gf_u$word@3| |__fpclassify_float::in_fa0@3|)))(let ((.def_28 (fp.as_ieee_bv |__fpclassify_float::x@2|)))(let ((.def_30 (= .def_28 |__fpclassify_float::gf_u$word@3|)))(let ((.def_27 (= |__fpclassify_float::x@2| |__fpclassify_float::gf_u$value@3|)))(let ((.def_31 (and .def_27 .def_30)))(let ((.def_18 (bvurem |__ADDRESS_OF___fpclassify_float::gf_u@| (_ bv4 32))))(let ((.def_19 (= .def_18 (_ bv0 32))))(let ((.def_17 (bvslt (_ bv0 32) |__ADDRESS_OF___fpclassify_float::gf_u@|)))(let ((.def_23 (and .def_17 .def_19)))(let ((.def_21 (bvadd (_ bv4 32) |__ADDRESS_OF___fpclassify_float::gf_u@|)))(let ((.def_22 (bvslt (_ bv0 32) .def_21)))(let ((.def_24 (and .def_22 .def_23)))(let ((.def_14 (= |fmin_float::x@2| |__fpclassify_float::x@2|)))(let ((.def_12 (= |main::in_a0@2| |fmin_float::x@2|)))(let ((.def_15 (and .def_12 .def_14)))(let ((.def_25 (and .def_15 .def_24)))(let ((.def_32 (and .def_25 .def_31)))(let ((.def_35 (and .def_32 .def_34)))(let ((.def_39 (and .def_35 .def_36)))(let ((.def_428 (and .def_39 .def_126)))(let ((.def_130 (= |__fpclassify_float::iVar1@3| |__fpclassify_float::__retval__@2|)))(let ((.def_429 (and .def_130 .def_428)))(let ((.def_432 (and .def_429 .def_431)))(let ((.def_435 (and .def_432 .def_434)))(let ((.def_140 (= |fmin_float::extraout_var@2| (_ bv0 32))))(let ((.def_436 (and .def_140 .def_435)))(let ((.def_440 (and .def_436 .def_438)))(let ((.def_443 (and .def_440 .def_442)))(let ((.def_450 (and .def_443 .def_449)))(let ((.def_453 (and .def_450 .def_452)))(let ((.def_457 (and .def_453 .def_456)))(let ((.def_461 (and .def_457 .def_460)))(let ((.def_465 (and .def_461 .def_464)))(let ((.def_469 (and .def_465 .def_468)))(let ((.def_472 (and .def_469 .def_471)))(let ((.def_474 (and .def_472 .def_473)))(let ((.def_477 (and .def_474 .def_476)))(let ((.def_481 (and .def_477 .def_480)))(let ((.def_483 (and .def_481 .def_482)))(let ((.def_486 (and .def_483 .def_485)))(let ((.def_280 ((_ to_fp 11 53) RNE |main::extraout_fa0@2|)))(let ((.def_282 (fp.eq .def_280 (fp #b0 #b00000000000 #b0000000000000000000000000000000000000000000000000000))))(let ((.def_283 (not .def_282)))(let ((.def_487 (and .def_283 .def_486))).def_487)))))))))))))))))))))))))))))))))))))))))))))))))))))))))))))))))))))))))